54
4 106 77 43 72 
2 28 58 
2 49 5 
2 68 119 
3 97 95 33 
3 2 84 54 
3 80 53 11 
3 112 98 62 
2 29 21 
3 34 118 8 
2 20 23 
3 27 75 22 
2 109 31 
3 16 79 91 
3 108 64 70 
2 69 63 
3 17 89 32 
2 18 120 
3 99 102 6 
3 113 37 42 
2 87 96 
3 56 46 104 
2 76 90 
3 9 82 94 
2 66 65 
2 51 85 
3 30 67 60 
2 35 44 
2 110 50 
1 52 
3 100 39 115 
2 10 55 
2 47 36 
2 38 93 
2 92 73 
2 19 107 
2 45 71 
3 101 78 111 
2 74 114 
2 4 24 
2 83 86 
2 81 12 
2 3 13 
3 88 57 15 
1 61 
1 59 
1 116 
2 48 40 
2 25 103 
2 117 105 
2 26 14 
1 1 
1 7 
1 41 
